33 33
23
3 3 14 30
3 4 7 24
3 5 7 28
3 6 30 27
3 7 21 17
3 8 24 0
3 9 21 24
3 10 24 23
3 13 30 0
3 14 30 13
3 15 24 8
3 17 17 0
3 24 7 0
3 30 14 0
3 33 27 0
4 3 20 14
4 4 10 17
4 6 17 17
4 10 17 23
4 12 10 21
4 14 20 0
4 17 10 0
7 33 0 0
